c FILE:  par16-3-c.cnf
c
c SOURCE: James Crawford (jc@research.att.com)
c
c DESCRIPTION: Instance arises from the problem of learning the parity
c              function.  
c
c     parxx-y denotes a parity problem on xx bits.  y is simply the
c     intance number.
c
c     parxx-y-c denotes an instance identical to parxx-y except that
c     the instances have been simplified (to create an equivalent
c     problem). 
c
c NOTE: Satisfiable (checked for 8 and 16 size instances. All
c       instances are satisfiable by construction)
c
c NOTE: Number of clauses corrected August 3, 1993
c
c Converted from tableau format Tue Aug  3 09:49:32 EDT 1993
p cnf 334 1332
 -2 1
 0
 -3 -2
 0
 -5 4 3
 0
 -6 -5 3
 0
 5 -3
 0
 6 -3
 0
 -3 -2 -1
 0
 3 2 -1
 0
 -3 2 1
 0
 3 -2 1
 0
 -6 -5 -4
 0
 6 5 -4
 0
 -6 5 4
 0
 6 -5 4
 0
 -7 2
 0
 -8 -7
 0
 -9 5 8
 0
 -10 -9 8
 0
 9 -8
 0
 10 -8
 0
 -8 -7 -2
 0
 8 7 -2
 0
 -8 7 2
 0
 8 -7 2
 0
 -10 -9 -5
 0
 10 9 -5
 0
 -10 9 5
 0
 10 -9 5
 0
 -11 7
 0
 -12 -11
 0
 -13 9 12
 0
 -14 -13 12
 0
 13 -12
 0
 14 -12
 0
 -12 -11 -7
 0
 12 11 -7
 0
 -12 11 7
 0
 12 -11 7
 0
 -14 -13 -9
 0
 14 13 -9
 0
 -14 13 9
 0
 14 -13 9
 0
 -15 11
 0
 -16 -15
 0
 -17 13 16
 0
 -18 -17 16
 0
 17 -16
 0
 18 -16
 0
 -16 -15 -11
 0
 16 15 -11
 0
 -16 15 11
 0
 16 -15 11
 0
 -18 -17 -13
 0
 18 17 -13
 0
 -18 17 13
 0
 18 -17 13
 0
 -19 15
 0
 -20 -19
 0
 -21 17 20
 0
 -22 -21 20
 0
 21 -20
 0
 22 -20
 0
 -20 -19 -15
 0
 20 19 -15
 0
 -20 19 15
 0
 20 -19 15
 0
 -22 -21 -17
 0
 22 21 -17
 0
 -22 21 17
 0
 22 -21 17
 0
 -23 19
 0
 -24 -23
 0
 -25 21 24
 0
 -26 -25 24
 0
 25 -24
 0
 26 -24
 0
 -24 -23 -19
 0
 24 23 -19
 0
 -24 23 19
 0
 24 -23 19
 0
 -26 -25 -21
 0
 26 25 -21
 0
 -26 25 21
 0
 26 -25 21
 0
 -27 23
 0
 -28 -27
 0
 -29 25 28
 0
 -30 -29 28
 0
 29 -28
 0
 30 -28
 0
 -28 -27 -23
 0
 28 27 -23
 0
 -28 27 23
 0
 28 -27 23
 0
 -30 -29 -25
 0
 30 29 -25
 0
 -30 29 25
 0
 30 -29 25
 0
 -31 27
 0
 -32 -31
 0
 -33 29 32
 0
 -34 -33 32
 0
 33 -32
 0
 34 -32
 0
 -32 -31 -27
 0
 32 31 -27
 0
 -32 31 27
 0
 32 -31 27
 0
 -34 -33 -29
 0
 34 33 -29
 0
 -34 33 29
 0
 34 -33 29
 0
 -35 31
 0
 -36 -35
 0
 -37 33 36
 0
 -38 -37 36
 0
 37 -36
 0
 38 -36
 0
 -36 -35 -31
 0
 36 35 -31
 0
 -36 35 31
 0
 36 -35 31
 0
 -38 -37 -33
 0
 38 37 -33
 0
 -38 37 33
 0
 38 -37 33
 0
 -39 35
 0
 -40 -39
 0
 -41 37 40
 0
 -42 -41 40
 0
 41 -40
 0
 42 -40
 0
 -40 -39 -35
 0
 40 39 -35
 0
 -40 39 35
 0
 40 -39 35
 0
 -42 -41 -37
 0
 42 41 -37
 0
 -42 41 37
 0
 42 -41 37
 0
 -43 39
 0
 -44 -43
 0
 -45 41 44
 0
 -46 -45 44
 0
 45 -44
 0
 46 -44
 0
 -44 -43 -39
 0
 44 43 -39
 0
 -44 43 39
 0
 44 -43 39
 0
 -46 -45 -41
 0
 46 45 -41
 0
 -46 45 41
 0
 46 -45 41
 0
 -47 43
 0
 -48 -47
 0
 -49 45 48
 0
 -50 -49 48
 0
 49 -48
 0
 50 -48
 0
 -48 -47 -43
 0
 48 47 -43
 0
 -48 47 43
 0
 48 -47 43
 0
 -50 -49 -45
 0
 50 49 -45
 0
 -50 49 45
 0
 50 -49 45
 0
 -51 47
 0
 -52 -51
 0
 -53 49 52
 0
 -54 -53 52
 0
 53 -52
 0
 54 -52
 0
 -52 -51 -47
 0
 52 51 -47
 0
 -52 51 47
 0
 52 -51 47
 0
 -54 -53 -49
 0
 54 53 -49
 0
 -54 53 49
 0
 54 -53 49
 0
 -55 51
 0
 -56 -55
 0
 -57 53 56
 0
 -58 -57 56
 0
 57 -56
 0
 58 -56
 0
 -56 -55 -51
 0
 56 55 -51
 0
 -56 55 51
 0
 56 -55 51
 0
 -58 -57 -53
 0
 58 57 -53
 0
 -58 57 53
 0
 58 -57 53
 0
 -59 55
 0
 -60 -59
 0
 -61 57 60
 0
 -62 -61 60
 0
 61 -60
 0
 62 -60
 0
 -60 -59 -55
 0
 60 59 -55
 0
 -60 59 55
 0
 60 -59 55
 0
 -62 -61 -57
 0
 62 61 -57
 0
 -62 61 57
 0
 62 -61 57
 0
 -63 59
 0
 -64 -63
 0
 -65 61 64
 0
 -66 -65 64
 0
 65 -64
 0
 66 -64
 0
 -64 -63 -59
 0
 64 63 -59
 0
 -64 63 59
 0
 64 -63 59
 0
 -66 -65 -61
 0
 66 65 -61
 0
 -66 65 61
 0
 66 -65 61
 0
 -67 63
 0
 -68 -67
 0
 -69 65 68
 0
 -70 -69 68
 0
 69 -68
 0
 70 -68
 0
 -68 -67 -63
 0
 68 67 -63
 0
 -68 67 63
 0
 68 -67 63
 0
 -70 -69 -65
 0
 70 69 -65
 0
 -70 69 65
 0
 70 -69 65
 0
 -71 67
 0
 -72 -71
 0
 -73 69 72
 0
 -74 -73 72
 0
 73 -72
 0
 74 -72
 0
 -72 -71 -67
 0
 72 71 -67
 0
 -72 71 67
 0
 72 -71 67
 0
 -74 -73 -69
 0
 74 73 -69
 0
 -74 73 69
 0
 74 -73 69
 0
 -75 71
 0
 -76 -75
 0
 -77 73 76
 0
 -78 -77 76
 0
 77 -76
 0
 78 -76
 0
 -76 -75 -71
 0
 76 75 -71
 0
 -76 75 71
 0
 76 -75 71
 0
 -78 -77 -73
 0
 78 77 -73
 0
 -78 77 73
 0
 78 -77 73
 0
 -79 75
 0
 -80 -79
 0
 -81 77 80
 0
 -82 -81 80
 0
 81 -80
 0
 82 -80
 0
 -80 -79 -75
 0
 80 79 -75
 0
 -80 79 75
 0
 80 -79 75
 0
 -82 -81 -77
 0
 82 81 -77
 0
 -82 81 77
 0
 82 -81 77
 0
 -83 79
 0
 -84 -83
 0
 -85 81 84
 0
 -86 -85 84
 0
 85 -84
 0
 86 -84
 0
 -84 -83 -79
 0
 84 83 -79
 0
 -84 83 79
 0
 84 -83 79
 0
 -86 -85 -81
 0
 86 85 -81
 0
 -86 85 81
 0
 86 -85 81
 0
 -87 83
 0
 -88 -87
 0
 -89 85 88
 0
 -90 -89 88
 0
 89 -88
 0
 90 -88
 0
 -88 -87 -83
 0
 88 87 -83
 0
 -88 87 83
 0
 88 -87 83
 0
 -90 -89 -85
 0
 90 89 -85
 0
 -90 89 85
 0
 90 -89 85
 0
 -91 87
 0
 -92 -91
 0
 -93 89 92
 0
 -94 -93 92
 0
 93 -92
 0
 94 -92
 0
 -92 -91 -87
 0
 92 91 -87
 0
 -92 91 87
 0
 92 -91 87
 0
 -94 -93 -89
 0
 94 93 -89
 0
 -94 93 89
 0
 94 -93 89
 0
 -95 91
 0
 -96 -95
 0
 -97 93 96
 0
 -98 -97 96
 0
 97 -96
 0
 98 -96
 0
 -96 -95 -91
 0
 96 95 -91
 0
 -96 95 91
 0
 96 -95 91
 0
 -98 -97 -93
 0
 98 97 -93
 0
 -98 97 93
 0
 98 -97 93
 0
 -99 95
 0
 -100 -99
 0
 -101 97 100
 0
 -102 -101 100
 0
 101 -100
 0
 102 -100
 0
 -100 -99 -95
 0
 100 99 -95
 0
 -100 99 95
 0
 100 -99 95
 0
 -102 -101 -97
 0
 102 101 -97
 0
 -102 101 97
 0
 102 -101 97
 0
 -103 99
 0
 -104 -103
 0
 -105 101 104
 0
 -106 -105 104
 0
 105 -104
 0
 106 -104
 0
 -104 -103 -99
 0
 104 103 -99
 0
 -104 103 99
 0
 104 -103 99
 0
 -106 -105 -101
 0
 106 105 -101
 0
 -106 105 101
 0
 106 -105 101
 0
 -107 103
 0
 -108 -107
 0
 -109 105 108
 0
 -110 -109 108
 0
 109 -108
 0
 110 -108
 0
 -108 -107 -103
 0
 108 107 -103
 0
 -108 107 103
 0
 108 -107 103
 0
 -110 -109 -105
 0
 110 109 -105
 0
 -110 109 105
 0
 110 -109 105
 0
 -111 107
 0
 -112 -111
 0
 -113 109 112
 0
 -114 -113 112
 0
 113 -112
 0
 114 -112
 0
 -112 -111 -107
 0
 112 111 -107
 0
 -112 111 107
 0
 112 -111 107
 0
 -114 -113 -109
 0
 114 113 -109
 0
 -114 113 109
 0
 114 -113 109
 0
 -115 111
 0
 -116 -115
 0
 -117 113 116
 0
 -118 -117 116
 0
 117 -116
 0
 118 -116
 0
 -116 -115 -111
 0
 116 115 -111
 0
 -116 115 111
 0
 116 -115 111
 0
 -118 -117 -113
 0
 118 117 -113
 0
 -118 117 113
 0
 118 -117 113
 0
 115 -119
 0
 -120 -119
 0
 -121 117 120
 0
 -122 -121 120
 0
 121 -120
 0
 122 -120
 0
 -120 -115 -119
 0
 120 -115 119
 0
 -120 115 119
 0
 120 115 -119
 0
 -122 -121 -117
 0
 122 121 -117
 0
 -122 121 117
 0
 122 -121 117
 0
 121 119 -123
 0
 -124 119 -123
 0
 -119 123
 0
 124 -119
 0
 -124 -121 -123
 0
 124 -121 123
 0
 -124 121 123
 0
 124 121 -123
 0
 -126 -125 -6
 0
 126 125 -6
 0
 -126 125 6
 0
 126 -125 6
 0
 -128 -127 -125
 0
 128 127 -125
 0
 -128 127 125
 0
 128 -127 125
 0
 -130 -129 -127
 0
 130 129 -127
 0
 -130 129 127
 0
 130 -129 127
 0
 -132 -131 -129
 0
 132 131 -129
 0
 -132 131 129
 0
 132 -131 129
 0
 -134 -133 -131
 0
 134 133 -131
 0
 -134 133 131
 0
 134 -133 131
 0
 -136 -135 -133
 0
 136 135 -133
 0
 -136 135 133
 0
 136 -135 133
 0
 -138 -135 -137
 0
 138 -135 137
 0
 -138 135 137
 0
 138 135 -137
 0
 -140 -139 -10
 0
 140 139 -10
 0
 -140 139 10
 0
 140 -139 10
 0
 -126 -141 -139
 0
 126 141 -139
 0
 -126 141 139
 0
 126 -141 139
 0
 -143 -142 -141
 0
 143 142 -141
 0
 -143 142 141
 0
 143 -142 141
 0
 -128 -144 -142
 0
 128 144 -142
 0
 -128 144 142
 0
 128 -144 142
 0
 -145 -138 -144
 0
 145 138 -144
 0
 -145 138 144
 0
 145 -138 144
 0
 -140 -146 -14
 0
 140 146 -14
 0
 -140 146 14
 0
 140 -146 14
 0
 -148 -147 -146
 0
 148 147 -146
 0
 -148 147 146
 0
 148 -147 146
 0
 -128 -149 -147
 0
 128 149 -147
 0
 -128 149 147
 0
 128 -149 147
 0
 -151 -150 -149
 0
 151 150 -149
 0
 -151 150 149
 0
 151 -150 149
 0
 -153 -152 -150
 0
 153 152 -150
 0
 -153 152 150
 0
 153 -152 150
 0
 -132 -154 -152
 0
 132 154 -152
 0
 -132 154 152
 0
 132 -154 152
 0
 -134 -155 -154
 0
 134 155 -154
 0
 -134 155 154
 0
 134 -155 154
 0
 -136 -155 138
 0
 136 -155 -138
 0
 -136 155 -138
 0
 136 155 138
 0
 -140 -156 -18
 0
 140 156 -18
 0
 -140 156 18
 0
 140 -156 18
 0
 -143 -157 -156
 0
 143 157 -156
 0
 -143 157 156
 0
 143 -157 156
 0
 -128 -158 -157
 0
 128 158 -157
 0
 -128 158 157
 0
 128 -158 157
 0
 -151 -159 -158
 0
 151 159 -158
 0
 -151 159 158
 0
 151 -159 158
 0
 -153 -160 -159
 0
 153 160 -159
 0
 -153 160 159
 0
 153 -160 159
 0
 -145 -161 -160
 0
 145 161 -160
 0
 -145 161 160
 0
 145 -161 160
 0
 -162 -161 136
 0
 162 -161 -136
 0
 -162 161 -136
 0
 162 161 136
 0
 -126 -163 -22
 0
 126 163 -22
 0
 -126 163 22
 0
 126 -163 22
 0
 -143 -164 -163
 0
 143 164 -163
 0
 -143 164 163
 0
 143 -164 163
 0
 -166 -165 -164
 0
 166 165 -164
 0
 -166 165 164
 0
 166 -165 164
 0
 -132 -167 -165
 0
 132 167 -165
 0
 -132 167 165
 0
 132 -167 165
 0
 -145 -168 -167
 0
 145 168 -167
 0
 -145 168 167
 0
 145 -168 167
 0
 -162 -169 -168
 0
 162 169 -168
 0
 -162 169 168
 0
 162 -169 168
 0
 -138 -169 137
 0
 138 -169 -137
 0
 -138 169 -137
 0
 138 169 137
 0
 -148 -170 -26
 0
 148 170 -26
 0
 -148 170 26
 0
 148 -170 26
 0
 -143 -171 -170
 0
 143 171 -170
 0
 -143 171 170
 0
 143 -171 170
 0
 -166 -172 -171
 0
 166 172 -171
 0
 -166 172 171
 0
 166 -172 171
 0
 -128 -173 -172
 0
 128 173 -172
 0
 -128 173 172
 0
 128 -173 172
 0
 -151 -174 -173
 0
 151 174 -173
 0
 -151 174 173
 0
 151 -174 173
 0
 -153 -175 -174
 0
 153 175 -174
 0
 -153 175 174
 0
 153 -175 174
 0
 -162 -176 -175
 0
 162 176 -175
 0
 -162 176 175
 0
 162 -176 175
 0
 -134 -177 -176
 0
 134 177 -176
 0
 -134 177 176
 0
 134 -177 176
 0
 -136 -177 137
 0
 136 -177 -137
 0
 -136 177 -137
 0
 136 177 137
 0
 -148 -178 -30
 0
 148 178 -30
 0
 -148 178 30
 0
 148 -178 30
 0
 -143 -179 -178
 0
 143 179 -178
 0
 -143 179 178
 0
 143 -179 178
 0
 -166 -180 -179
 0
 166 180 -179
 0
 -166 180 179
 0
 166 -180 179
 0
 -151 -181 -180
 0
 151 181 -180
 0
 -151 181 180
 0
 151 -181 180
 0
 -132 -182 -181
 0
 132 182 -181
 0
 -132 182 181
 0
 132 -182 181
 0
 -162 -183 -182
 0
 162 183 -182
 0
 -162 183 182
 0
 162 -183 182
 0
 -134 -184 -183
 0
 134 184 -183
 0
 -134 184 183
 0
 134 -184 183
 0
 -136 -184 -138
 0
 136 -184 138
 0
 -136 184 138
 0
 136 184 -138
 0
 -126 -185 -34
 0
 126 185 -34
 0
 -126 185 34
 0
 126 -185 34
 0
 -148 -186 -185
 0
 148 186 -185
 0
 -148 186 185
 0
 148 -186 185
 0
 -151 -187 -186
 0
 151 187 -186
 0
 -151 187 186
 0
 151 -187 186
 0
 -153 -188 -187
 0
 153 188 -187
 0
 -153 188 187
 0
 153 -188 187
 0
 -132 -189 -188
 0
 132 189 -188
 0
 -132 189 188
 0
 132 -189 188
 0
 -162 -190 -189
 0
 162 190 -189
 0
 -162 190 189
 0
 162 -190 189
 0
 -136 -190 138
 0
 136 -190 -138
 0
 -136 190 -138
 0
 136 190 138
 0
 -126 -191 -38
 0
 126 191 -38
 0
 -126 191 38
 0
 126 -191 38
 0
 -143 -192 -191
 0
 143 192 -191
 0
 -143 192 191
 0
 143 -192 191
 0
 -166 -193 -192
 0
 166 193 -192
 0
 -166 193 192
 0
 166 -193 192
 0
 -151 -194 -193
 0
 151 194 -193
 0
 -151 194 193
 0
 151 -194 193
 0
 -130 -195 -194
 0
 130 195 -194
 0
 -130 195 194
 0
 130 -195 194
 0
 -132 -196 -195
 0
 132 196 -195
 0
 -132 196 195
 0
 132 -196 195
 0
 -145 -197 -196
 0
 145 197 -196
 0
 -145 197 196
 0
 145 -197 196
 0
 -162 -198 -197
 0
 162 198 -197
 0
 -162 198 197
 0
 162 -198 197
 0
 -138 -137 -198
 0
 138 137 -198
 0
 -138 137 198
 0
 138 -137 198
 0
 -151 -199 -42
 0
 151 199 -42
 0
 -151 199 42
 0
 151 -199 42
 0
 -130 -200 -199
 0
 130 200 -199
 0
 -130 200 199
 0
 130 -200 199
 0
 -145 -201 -200
 0
 145 201 -200
 0
 -145 201 200
 0
 145 -201 200
 0
 -162 -202 -201
 0
 162 202 -201
 0
 -162 202 201
 0
 162 -202 201
 0
 -134 -203 -202
 0
 134 203 -202
 0
 -134 203 202
 0
 134 -203 202
 0
 -136 -203 -138
 0
 136 -203 138
 0
 -136 203 138
 0
 136 203 -138
 0
 -140 -204 -46
 0
 140 204 -46
 0
 -140 204 46
 0
 140 -204 46
 0
 -126 -205 -204
 0
 126 205 -204
 0
 -126 205 204
 0
 126 -205 204
 0
 -148 -206 -205
 0
 148 206 -205
 0
 -148 206 205
 0
 148 -206 205
 0
 -130 -207 -206
 0
 130 207 -206
 0
 -130 207 206
 0
 130 -207 206
 0
 -145 -208 -207
 0
 145 208 -207
 0
 -145 208 207
 0
 145 -208 207
 0
 -134 -209 -208
 0
 134 209 -208
 0
 -134 209 208
 0
 134 -209 208
 0
 -136 -210 -209
 0
 136 210 -209
 0
 -136 210 209
 0
 136 -210 209
 0
 -138 -210 137
 0
 138 -210 -137
 0
 -138 210 -137
 0
 138 210 137
 0
 -140 -211 -50
 0
 140 211 -50
 0
 -140 211 50
 0
 140 -211 50
 0
 -126 -212 -211
 0
 126 212 -211
 0
 -126 212 211
 0
 126 -212 211
 0
 -148 -213 -212
 0
 148 213 -212
 0
 -148 213 212
 0
 148 -213 212
 0
 -143 -214 -213
 0
 143 214 -213
 0
 -143 214 213
 0
 143 -214 213
 0
 -166 -215 -214
 0
 166 215 -214
 0
 -166 215 214
 0
 166 -215 214
 0
 -128 -216 -215
 0
 128 216 -215
 0
 -128 216 215
 0
 128 -216 215
 0
 -153 -217 -216
 0
 153 217 -216
 0
 -153 217 216
 0
 153 -217 216
 0
 -130 -218 -217
 0
 130 218 -217
 0
 -130 218 217
 0
 130 -218 217
 0
 -145 -136 -218
 0
 145 136 -218
 0
 -145 136 218
 0
 145 -136 218
 0
 -126 -219 -54
 0
 126 219 -54
 0
 -126 219 54
 0
 126 -219 54
 0
 -148 -220 -219
 0
 148 220 -219
 0
 -148 220 219
 0
 148 -220 219
 0
 -143 -221 -220
 0
 143 221 -220
 0
 -143 221 220
 0
 143 -221 220
 0
 -132 -136 -221
 0
 132 136 -221
 0
 -132 136 221
 0
 132 -136 221
 0
 -140 -222 -58
 0
 140 222 -58
 0
 -140 222 58
 0
 140 -222 58
 0
 -126 -223 -222
 0
 126 223 -222
 0
 -126 223 222
 0
 126 -223 222
 0
 -128 -224 -223
 0
 128 224 -223
 0
 -128 224 223
 0
 128 -224 223
 0
 -153 -225 -224
 0
 153 225 -224
 0
 -153 225 224
 0
 153 -225 224
 0
 -134 -226 -225
 0
 134 226 -225
 0
 -134 226 225
 0
 134 -226 225
 0
 -136 -227 -226
 0
 136 227 -226
 0
 -136 227 226
 0
 136 -227 226
 0
 -138 -227 -137
 0
 138 -227 137
 0
 -138 227 137
 0
 138 227 -137
 0
 -126 -228 -62
 0
 126 228 -62
 0
 -126 228 62
 0
 126 -228 62
 0
 -128 -229 -228
 0
 128 229 -228
 0
 -128 229 228
 0
 128 -229 228
 0
 -130 -230 -229
 0
 130 230 -229
 0
 -130 230 229
 0
 130 -230 229
 0
 -132 -231 -230
 0
 132 231 -230
 0
 -132 231 230
 0
 132 -231 230
 0
 -145 -232 -231
 0
 145 232 -231
 0
 -145 232 231
 0
 145 -232 231
 0
 -162 -233 -232
 0
 162 233 -232
 0
 -162 233 232
 0
 162 -233 232
 0
 -134 -234 -233
 0
 134 234 -233
 0
 -134 234 233
 0
 134 -234 233
 0
 -136 -235 -234
 0
 136 235 -234
 0
 -136 235 234
 0
 136 -235 234
 0
 -138 -235 -137
 0
 138 -235 137
 0
 -138 235 137
 0
 138 235 -137
 0
 -126 -236 -66
 0
 126 236 -66
 0
 -126 236 66
 0
 126 -236 66
 0
 -148 -237 -236
 0
 148 237 -236
 0
 -148 237 236
 0
 148 -237 236
 0
 -151 -238 -237
 0
 151 238 -237
 0
 -151 238 237
 0
 151 -238 237
 0
 -153 -239 -238
 0
 153 239 -238
 0
 -153 239 238
 0
 153 -239 238
 0
 -130 -240 -239
 0
 130 240 -239
 0
 -130 240 239
 0
 130 -240 239
 0
 -132 -241 -240
 0
 132 241 -240
 0
 -132 241 240
 0
 132 -241 240
 0
 -145 -242 -241
 0
 145 242 -241
 0
 -145 242 241
 0
 145 -242 241
 0
 -162 -243 -242
 0
 162 243 -242
 0
 -162 243 242
 0
 162 -243 242
 0
 -134 -243 -138
 0
 134 -243 138
 0
 -134 243 138
 0
 134 243 -138
 0
 -140 -244 -70
 0
 140 244 -70
 0
 -140 244 70
 0
 140 -244 70
 0
 -151 -245 -244
 0
 151 245 -244
 0
 -151 245 244
 0
 151 -245 244
 0
 -130 -245 134
 0
 130 -245 -134
 0
 -130 245 -134
 0
 130 245 134
 0
 -126 -246 -74
 0
 126 246 -74
 0
 -126 246 74
 0
 126 -246 74
 0
 -143 -247 -246
 0
 143 247 -246
 0
 -143 247 246
 0
 143 -247 246
 0
 -166 -248 -247
 0
 166 248 -247
 0
 -166 248 247
 0
 166 -248 247
 0
 -151 -249 -248
 0
 151 249 -248
 0
 -151 249 248
 0
 151 -249 248
 0
 -153 -250 -249
 0
 153 250 -249
 0
 -153 250 249
 0
 153 -250 249
 0
 -132 -251 -250
 0
 132 251 -250
 0
 -132 251 250
 0
 132 -251 250
 0
 -145 -252 -251
 0
 145 252 -251
 0
 -145 252 251
 0
 145 -252 251
 0
 -162 -253 -252
 0
 162 253 -252
 0
 -162 253 252
 0
 162 -253 252
 0
 -134 -253 136
 0
 134 -253 -136
 0
 -134 253 -136
 0
 134 253 136
 0
 -140 -254 -78
 0
 140 254 -78
 0
 -140 254 78
 0
 140 -254 78
 0
 -148 -255 -254
 0
 148 255 -254
 0
 -148 255 254
 0
 148 -255 254
 0
 -132 -256 -255
 0
 132 256 -255
 0
 -132 256 255
 0
 132 -256 255
 0
 -145 -256 162
 0
 145 -256 -162
 0
 -145 256 -162
 0
 145 256 162
 0
 -143 -257 -82
 0
 143 257 -82
 0
 -143 257 82
 0
 143 -257 82
 0
 -166 -258 -257
 0
 166 258 -257
 0
 -166 258 257
 0
 166 -258 257
 0
 -128 -259 -258
 0
 128 259 -258
 0
 -128 259 258
 0
 128 -259 258
 0
 -151 -260 -259
 0
 151 260 -259
 0
 -151 260 259
 0
 151 -260 259
 0
 -130 -261 -260
 0
 130 261 -260
 0
 -130 261 260
 0
 130 -261 260
 0
 -132 -261 145
 0
 132 -261 -145
 0
 -132 261 -145
 0
 132 261 145
 0
 -140 -262 -86
 0
 140 262 -86
 0
 -140 262 86
 0
 140 -262 86
 0
 -148 -263 -262
 0
 148 263 -262
 0
 -148 263 262
 0
 148 -263 262
 0
 -128 -264 -263
 0
 128 264 -263
 0
 -128 264 263
 0
 128 -264 263
 0
 -130 -265 -264
 0
 130 265 -264
 0
 -130 265 264
 0
 130 -265 264
 0
 -132 -266 -265
 0
 132 266 -265
 0
 -132 266 265
 0
 132 -266 265
 0
 -162 -267 -266
 0
 162 267 -266
 0
 -162 267 266
 0
 162 -267 266
 0
 -136 -268 -267
 0
 136 268 -267
 0
 -136 268 267
 0
 136 -268 267
 0
 -138 -268 -137
 0
 138 -268 137
 0
 -138 268 137
 0
 138 268 -137
 0
 -148 -269 -90
 0
 148 269 -90
 0
 -148 269 90
 0
 148 -269 90
 0
 -151 -270 -269
 0
 151 270 -269
 0
 -151 270 269
 0
 151 -270 269
 0
 -130 -271 -270
 0
 130 271 -270
 0
 -130 271 270
 0
 130 -271 270
 0
 -145 -272 -271
 0
 145 272 -271
 0
 -145 272 271
 0
 145 -272 271
 0
 -162 -273 -272
 0
 162 273 -272
 0
 -162 273 272
 0
 162 -273 272
 0
 -136 -138 -273
 0
 136 138 -273
 0
 -136 138 273
 0
 136 -138 273
 0
 -166 -274 -94
 0
 166 274 -94
 0
 -166 274 94
 0
 166 -274 94
 0
 -151 -275 -274
 0
 151 275 -274
 0
 -151 275 274
 0
 151 -275 274
 0
 -130 -276 -275
 0
 130 276 -275
 0
 -130 276 275
 0
 130 -276 275
 0
 -132 -277 -276
 0
 132 277 -276
 0
 -132 277 276
 0
 132 -277 276
 0
 -145 -278 -277
 0
 145 278 -277
 0
 -145 278 277
 0
 145 -278 277
 0
 -162 -279 -278
 0
 162 279 -278
 0
 -162 279 278
 0
 162 -279 278
 0
 -134 -280 -279
 0
 134 280 -279
 0
 -134 280 279
 0
 134 -280 279
 0
 -136 -280 -138
 0
 136 -280 138
 0
 -136 280 138
 0
 136 280 -138
 0
 -151 -281 -98
 0
 151 281 -98
 0
 -151 281 98
 0
 151 -281 98
 0
 -153 -282 -281
 0
 153 282 -281
 0
 -153 282 281
 0
 153 -282 281
 0
 -132 -283 -282
 0
 132 283 -282
 0
 -132 283 282
 0
 132 -283 282
 0
 -134 -284 -283
 0
 134 284 -283
 0
 -134 284 283
 0
 134 -284 283
 0
 -136 -284 -138
 0
 136 -284 138
 0
 -136 284 138
 0
 136 284 -138
 0
 -143 -285 -102
 0
 143 285 -102
 0
 -143 285 102
 0
 143 -285 102
 0
 -166 -286 -285
 0
 166 286 -285
 0
 -166 286 285
 0
 166 -286 285
 0
 -128 -287 -286
 0
 128 287 -286
 0
 -128 287 286
 0
 128 -287 286
 0
 -153 -287 137
 0
 153 -287 -137
 0
 -153 287 -137
 0
 153 287 137
 0
 -140 -288 -106
 0
 140 288 -106
 0
 -140 288 106
 0
 140 -288 106
 0
 -143 -289 -288
 0
 143 289 -288
 0
 -143 289 288
 0
 143 -289 288
 0
 -151 -290 -289
 0
 151 290 -289
 0
 -151 290 289
 0
 151 -290 289
 0
 -132 -291 -290
 0
 132 291 -290
 0
 -132 291 290
 0
 132 -291 290
 0
 -162 -292 -291
 0
 162 292 -291
 0
 -162 292 291
 0
 162 -292 291
 0
 -134 -292 -138
 0
 134 -292 138
 0
 -134 292 138
 0
 134 292 -138
 0
 -126 -293 -110
 0
 126 293 -110
 0
 -126 293 110
 0
 126 -293 110
 0
 -148 -294 -293
 0
 148 294 -293
 0
 -148 294 293
 0
 148 -294 293
 0
 -143 -295 -294
 0
 143 295 -294
 0
 -143 295 294
 0
 143 -295 294
 0
 -166 -296 -295
 0
 166 296 -295
 0
 -166 296 295
 0
 166 -296 295
 0
 -128 -297 -296
 0
 128 297 -296
 0
 -128 297 296
 0
 128 -297 296
 0
 -130 -298 -297
 0
 130 298 -297
 0
 -130 298 297
 0
 130 -298 297
 0
 -132 -299 -298
 0
 132 299 -298
 0
 -132 299 298
 0
 132 -299 298
 0
 -136 -138 -299
 0
 136 138 -299
 0
 -136 138 299
 0
 136 -138 299
 0
 -140 -300 -114
 0
 140 300 -114
 0
 -140 300 114
 0
 140 -300 114
 0
 -126 -301 -300
 0
 126 301 -300
 0
 -126 301 300
 0
 126 -301 300
 0
 -148 -302 -301
 0
 148 302 -301
 0
 -148 302 301
 0
 148 -302 301
 0
 -166 -303 -302
 0
 166 303 -302
 0
 -166 303 302
 0
 166 -303 302
 0
 -151 -304 -303
 0
 151 304 -303
 0
 -151 304 303
 0
 151 -304 303
 0
 -153 -305 -304
 0
 153 305 -304
 0
 -153 305 304
 0
 153 -305 304
 0
 -130 -306 -305
 0
 130 306 -305
 0
 -130 306 305
 0
 130 -306 305
 0
 -145 -306 137
 0
 145 -306 -137
 0
 -145 306 -137
 0
 145 306 137
 0
 -148 -307 -118
 0
 148 307 -118
 0
 -148 307 118
 0
 148 -307 118
 0
 -143 -308 -307
 0
 143 308 -307
 0
 -143 308 307
 0
 143 -308 307
 0
 -166 -309 -308
 0
 166 309 -308
 0
 -166 309 308
 0
 166 -309 308
 0
 -151 -310 -309
 0
 151 310 -309
 0
 -151 310 309
 0
 151 -310 309
 0
 -130 -311 -310
 0
 130 311 -310
 0
 -130 311 310
 0
 130 -311 310
 0
 -145 -312 -311
 0
 145 312 -311
 0
 -145 312 311
 0
 145 -312 311
 0
 -162 -313 -312
 0
 162 313 -312
 0
 -162 313 312
 0
 162 -313 312
 0
 -134 -314 -313
 0
 134 314 -313
 0
 -134 314 313
 0
 134 -314 313
 0
 -138 -137 -314
 0
 138 137 -314
 0
 -138 137 314
 0
 138 -137 314
 0
 -140 -315 -122
 0
 140 315 -122
 0
 -140 315 122
 0
 140 -315 122
 0
 -143 -316 -315
 0
 143 316 -315
 0
 -143 316 315
 0
 143 -316 315
 0
 -166 -317 -316
 0
 166 317 -316
 0
 -166 317 316
 0
 166 -317 316
 0
 -128 -318 -317
 0
 128 318 -317
 0
 -128 318 317
 0
 128 -318 317
 0
 -153 -319 -318
 0
 153 319 -318
 0
 -153 319 318
 0
 153 -319 318
 0
 -130 -320 -319
 0
 130 320 -319
 0
 -130 320 319
 0
 130 -320 319
 0
 -132 -321 -320
 0
 132 321 -320
 0
 -132 321 320
 0
 132 -321 320
 0
 -145 -321 -136
 0
 145 -321 136
 0
 -145 321 136
 0
 145 321 -136
 0
 -140 -322 -124
 0
 140 322 -124
 0
 -140 322 124
 0
 140 -322 124
 0
 -148 -323 -322
 0
 148 323 -322
 0
 -148 323 322
 0
 148 -323 322
 0
 -143 -324 -323
 0
 143 324 -323
 0
 -143 324 323
 0
 143 -324 323
 0
 -166 -325 -324
 0
 166 325 -324
 0
 -166 325 324
 0
 166 -325 324
 0
 -151 -326 -325
 0
 151 326 -325
 0
 -151 326 325
 0
 151 -326 325
 0
 -153 -327 -326
 0
 153 327 -326
 0
 -153 327 326
 0
 153 -327 326
 0
 -132 -328 -327
 0
 132 328 -327
 0
 -132 328 327
 0
 132 -328 327
 0
 -134 -329 -328
 0
 134 329 -328
 0
 -134 329 328
 0
 134 -329 328
 0
 -136 -329 138
 0
 136 -329 -138
 0
 -136 329 -138
 0
 136 329 138
 0
 -126 -330 -123
 0
 126 330 -123
 0
 -126 330 123
 0
 126 -330 123
 0
 -148 -331 -330
 0
 148 331 -330
 0
 -148 331 330
 0
 148 -331 330
 0
 -153 -332 -331
 0
 153 332 -331
 0
 -153 332 331
 0
 153 -332 331
 0
 -145 -333 -332
 0
 145 333 -332
 0
 -145 333 332
 0
 145 -333 332
 0
 -162 -334 -333
 0
 162 334 -333
 0
 -162 334 333
 0
 162 -334 333
 0
 -136 -334 137
 0
 136 -334 -137
 0
 -136 334 -137
 0
 136 334 137
 0

